\ENCODING=ISO-8859-1
\Problem name: ilog.cplex

Maximize
 obj: 603 x(0)#0 + 637 x(1)#1 + 840 x(2)#2 + 1091 x(3)#3 + 780 x(4)#4
      + 642 x(5)#5 + 895 x(6)#6 + 540 x(7)#7 + 601 x(8)#8 + 701 x(9)#9
      + 731 x(10)#10 + 686 x(11)#11 + 496 x(12)#12 + 731 x(13)#13
      + 427 x(14)#14 + 558 x(15)#15 + 805 x(16)#16 + 702 x(17)#17
      + 759 x(18)#18 + 463 x(19)#19 + 970 x(20)#20 + 915 x(21)#21
      + 561 x(22)#22 + 964 x(23)#23 + 898 x(24)#24 + 941 x(25)#25
      + 748 x(26)#26 + 877 x(27)#27 + 952 x(28)#28 + 339 x(29)#29
      + 690 x(30)#30 + 860 x(31)#31 + 600 x(32)#32 + 604 x(33)#33
      + 646 x(34)#34 + 653 x(35)#35 + 760 x(36)#36 + 654 x(37)#37
      + 638 x(38)#38 + 721 x(39)#39 + 988 x(40)#40 + 693 x(41)#41
      + 721 x(42)#42 + 380 x(43)#43 + 482 x(44)#44 + 517 x(45)#45
      + 931 x(46)#46 + 454 x(47)#47 + 971 x(48)#48 + 679 x(49)#49
      + 945 x(50)#50 + 695 x(51)#51 + 954 x(52)#52 + 663 x(53)#53
      + 592 x(54)#54 + 570 x(55)#55 + 894 x(56)#56 + 731 x(57)#57
      + 273 x(58)#58 + 715 x(59)#59 + 431 x(60)#60 + 393 x(61)#61
      + 994 x(62)#62 + 667 x(63)#63 + 735 x(64)#64 + 848 x(65)#65
      + 1094 x(66)#66 + 961 x(67)#67 + 671 x(68)#68 + 615 x(69)#69
      + 815 x(70)#70 + 697 x(71)#71 + 523 x(72)#72 + 403 x(73)#73
      + 725 x(74)#74 + 647 x(75)#75 + 623 x(76)#76 + 1172 x(77)#77
      + 898 x(78)#78 + 643 x(79)#79 + 715 x(80)#80 + 366 x(81)#81
      + 555 x(82)#82 + 994 x(83)#83 + 1017 x(84)#84 + 915 x(85)#85
      + 669 x(86)#86 + 883 x(87)#87 + 492 x(88)#88 + 660 x(89)#89
      + 891 x(90)#90 + 581 x(91)#91 + 845 x(92)#92 + 860 x(93)#93
      + 750 x(94)#94 + 775 x(95)#95 + 952 x(96)#96 + 640 x(97)#97
      + 784 x(98)#98 + 535 x(99)#99
Subject To
 c1: 564 x(0)#0 + 573 x(1)#1 + 644 x(2)#2 + 578 x(3)#3 + 35 x(4)#4 + 292 x(5)#5
     + 982 x(6)#6 + 294 x(7)#7 + 315 x(8)#8 + 809 x(9)#9 + 523 x(10)#10
     + 94 x(11)#11 + 663 x(12)#12 + 780 x(13)#13 + 949 x(14)#14 + 36 x(15)#15
     + 166 x(16)#16 + 798 x(17)#17 + 640 x(18)#18 + 526 x(19)#19 + 176 x(20)#20
     + 745 x(21)#21 + 816 x(22)#22 + 748 x(23)#23 + 238 x(24)#24 + 369 x(25)#25
     + 542 x(26)#26 + 855 x(27)#27 + 95 x(28)#28 + 191 x(29)#29 + 121 x(30)#30
     + 510 x(31)#31 + 58 x(32)#32 + 633 x(33)#33 + 478 x(34)#34 + 24 x(35)#35
     + 352 x(36)#36 + 75 x(37)#37 + 480 x(38)#38 + 448 x(39)#39 + 516 x(40)#40
     + 900 x(41)#41 + 439 x(42)#42 + 331 x(43)#43 + 217 x(44)#44 + 600 x(45)#45
     + 656 x(46)#46 + 347 x(47)#47 + 978 x(48)#48 + 337 x(49)#49 + 559 x(50)#50
     + 649 x(51)#51 + 583 x(52)#52 + 628 x(53)#53 + 839 x(54)#54 + 397 x(55)#55
     + 285 x(56)#56 + 156 x(57)#57 + 45 x(58)#58 + 461 x(59)#59 + 2 x(60)#60
     + 866 x(61)#61 + 832 x(62)#62 + 295 x(63)#63 + 747 x(64)#64 + 391 x(65)#65
     + 617 x(66)#66 + 118 x(67)#67 + 310 x(68)#68 + 159 x(69)#69 + 602 x(70)#70
     + 422 x(71)#71 + 414 x(72)#72 + 190 x(73)#73 + 936 x(74)#74 + 384 x(75)#75
     + 170 x(76)#76 + 791 x(77)#77 + 576 x(78)#78 + 524 x(79)#79 + 181 x(80)#80
     + 561 x(81)#81 + 931 x(82)#82 + 338 x(83)#83 + 739 x(84)#84 + 47 x(85)#85
     + 697 x(86)#86 + 998 x(87)#87 + 792 x(88)#88 + 779 x(89)#89 + 727 x(90)#90
     + 190 x(91)#91 + 320 x(92)#92 + 787 x(93)#93 + 600 x(94)#94 + 77 x(95)#95
     + 526 x(96)#96 + 407 x(97)#97 + 620 x(98)#98 + 462 x(99)#99 <= 24132
 c2: 69 x(0)#0 + 120 x(1)#1 + 707 x(2)#2 + 768 x(3)#3 + 617 x(4)#4 + 344 x(5)#5
     + 512 x(6)#6 + 212 x(7)#7 + 763 x(8)#8 + 553 x(9)#9 + 141 x(10)#10
     + 463 x(11)#11 + 598 x(12)#12 + 582 x(13)#13 + 691 x(14)#14 + 647 x(15)#15
     + 772 x(16)#16 + 404 x(17)#17 + 238 x(18)#18 + 295 x(19)#19 + 375 x(20)#20
     + 302 x(21)#21 + 842 x(22)#22 + 771 x(23)#23 + 338 x(24)#24 + 363 x(25)#25
     + 496 x(26)#26 + 99 x(27)#27 + 915 x(28)#28 + 41 x(29)#29 + 102 x(30)#30
     + 799 x(31)#31 + 190 x(32)#32 + 413 x(33)#33 + 362 x(34)#34 + 422 x(35)#35
     + 747 x(36)#36 + 290 x(37)#37 + 485 x(38)#38 + 775 x(39)#39 + 403 x(40)#40
     + 429 x(41)#41 + 759 x(42)#42 + 676 x(43)#43 + 605 x(44)#44 + 474 x(45)#45
     + 670 x(46)#46 + 170 x(47)#47 + 211 x(48)#48 + 440 x(49)#49 + 750 x(50)#50
     + 721 x(51)#51 + 203 x(52)#52 + 285 x(53)#53 + 7 x(54)#54 + 467 x(55)#55
     + 814 x(56)#56 + 346 x(57)#57 + 498 x(58)#58 + 214 x(59)#59 + 379 x(60)#60
     + 148 x(61)#61 + 809 x(62)#62 + 873 x(63)#63 + 937 x(64)#64 + 607 x(65)#65
     + 345 x(66)#66 + 313 x(67)#67 + 982 x(68)#68 + 523 x(69)#69 + 768 x(70)#70
     + 945 x(71)#71 + 131 x(72)#72 + 148 x(73)#73 + 814 x(74)#74 + 203 x(75)#75
     + 595 x(76)#76 + 107 x(77)#77 + 62 x(78)#78 + 105 x(79)#79 + 519 x(80)#80
     + 86 x(81)#81 + 497 x(82)#82 + 930 x(83)#83 + 460 x(84)#84 + 319 x(85)#85
     + 199 x(86)#86 + 918 x(87)#87 + 143 x(88)#88 + 367 x(89)#89 + 628 x(90)#90
     + 39 x(91)#91 + 5 x(92)#92 + 81 x(93)#93 + 843 x(94)#94 + 37 x(95)#95
     + 437 x(96)#96 + 918 x(97)#97 + 174 x(98)#98 + 824 x(99)#99 <= 22992
 c3: 50 x(0)#0 + 196 x(1)#1 + 633 x(2)#2 + 827 x(3)#3 + 922 x(4)#4 + 782 x(5)#5
     + 434 x(6)#6 + 701 x(7)#7 + 280 x(8)#8 + 81 x(9)#9 + 345 x(10)#10
     + 726 x(11)#11 + 793 x(12)#12 + 76 x(13)#13 + 23 x(14)#14 + 732 x(15)#15
     + 648 x(16)#16 + 493 x(17)#17 + 752 x(18)#18 + 532 x(19)#19 + 883 x(20)#20
     + 475 x(21)#21 + 583 x(22)#22 + 111 x(23)#23 + 594 x(24)#24 + 687 x(25)#25
     + 134 x(26)#26 + 713 x(27)#27 + 290 x(28)#28 + 442 x(29)#29 + 115 x(30)#30
     + 491 x(31)#31 + 462 x(32)#32 + 797 x(33)#33 + 481 x(34)#34 + 667 x(35)#35
     + 456 x(36)#36 + 818 x(37)#37 + 419 x(38)#38 + 817 x(39)#39 + 387 x(40)#40
     + 30 x(41)#41 + 897 x(42)#42 + 73 x(43)#43 + 832 x(44)#44 + 99 x(45)#45
     + 312 x(46)#46 + 926 x(47)#47 + 522 x(48)#48 + 391 x(49)#49 + 595 x(50)#50
     + 325 x(51)#51 + 762 x(52)#52 + 830 x(53)#53 + 340 x(54)#54 + 653 x(55)#55
     + 569 x(56)#56 + 616 x(57)#57 + 504 x(58)#58 + 631 x(59)#59 + 729 x(60)#60
     + 154 x(61)#61 + 638 x(62)#62 + 74 x(63)#63 + 746 x(64)#64 + 541 x(65)#65
     + 998 x(66)#66 + 483 x(67)#67 + 510 x(68)#68 + 857 x(69)#69 + 849 x(70)#70
     + 655 x(71)#71 + 196 x(72)#72 + 80 x(73)#73 + 220 x(74)#74 + 560 x(75)#75
     + 301 x(76)#76 + 954 x(77)#77 + 556 x(78)#78 + 1000 x(79)#79
     + 919 x(80)#80 + 92 x(81)#81 + 16 x(82)#82 + 617 x(83)#83 + 909 x(84)#84
     + 703 x(85)#85 + 313 x(86)#86 + 881 x(87)#87 + 67 x(88)#88 + 242 x(89)#89
     + 835 x(90)#90 + 358 x(91)#91 + 386 x(92)#92 + 911 x(93)#93 + 192 x(94)#94
     + 789 x(95)#95 + 751 x(96)#96 + 909 x(97)#97 + 305 x(98)#98 + 130 x(99)#99
     <= 26091
 c4: 564 x(0)#0 + 379 x(1)#1 + 11 x(2)#2 + 703 x(3)#3 + 236 x(4)#4 + 624 x(5)#5
     + 107 x(6)#6 + 909 x(7)#7 + 335 x(8)#8 + 786 x(9)#9 + 690 x(10)#10
     + 595 x(11)#11 + 161 x(12)#12 + 477 x(13)#13 + 127 x(14)#14 + 33 x(15)#15
     + 387 x(16)#16 + 319 x(17)#17 + 663 x(18)#18 + 627 x(19)#19 + 311 x(20)#20
     + 205 x(21)#21 + 133 x(22)#22 + 998 x(23)#23 + 827 x(24)#24 + 216 x(25)#25
     + 201 x(26)#26 + 237 x(27)#27 + 341 x(28)#28 + 645 x(29)#29 + 578 x(30)#30
     + 536 x(31)#31 + 264 x(32)#32 + 511 x(33)#33 + 171 x(34)#34 + 977 x(35)#35
     + 658 x(36)#36 + 781 x(37)#37 + 14 x(38)#38 + 142 x(39)#39 + 934 x(40)#40
     + 691 x(41)#41 + 396 x(42)#42 + 109 x(43)#43 + 424 x(44)#44 + 154 x(45)#45
     + 400 x(46)#46 + 36 x(47)#47 + 428 x(48)#48 + 942 x(49)#49 + 990 x(50)#50
     + 251 x(51)#51 + 541 x(52)#52 + 411 x(53)#53 + 999 x(54)#54 + 32 x(55)#55
     + 790 x(56)#56 + 919 x(57)#57 + 65 x(58)#58 + 544 x(59)#59 + 930 x(60)#60
     + 221 x(61)#61 + 585 x(62)#62 + 702 x(63)#63 + 893 x(64)#64 + 495 x(65)#65
     + 568 x(66)#66 + 877 x(67)#67 + 559 x(68)#68 + 472 x(69)#69 + 686 x(70)#70
     + 893 x(71)#71 + 35 x(72)#72 + 573 x(73)#73 + 560 x(74)#74 + 328 x(75)#75
     + 363 x(76)#76 + 994 x(77)#77 + 971 x(78)#78 + 930 x(79)#79 + 129 x(80)#80
     + 556 x(81)#81 + 174 x(82)#82 + 498 x(83)#83 + 782 x(84)#84 + 258 x(85)#85
     + 393 x(86)#86 + 706 x(87)#87 + 411 x(88)#88 + 817 x(89)#89 + 928 x(90)#90
     + 224 x(91)#91 + 953 x(92)#92 + 908 x(93)#93 + 221 x(94)#94 + 698 x(95)#95
     + 664 x(96)#96 + 216 x(97)#97 + 417 x(98)#98 + 260 x(99)#99 <= 25192
 c5: 890 x(0)#0 + 113 x(1)#1 + 529 x(2)#2 + 561 x(3)#3 + 741 x(4)#4 + 55 x(5)#5
     + 816 x(6)#6 + 259 x(7)#7 + 722 x(8)#8 + 134 x(9)#9 + 960 x(10)#10
     + 787 x(11)#11 + 58 x(12)#12 + 952 x(13)#13 + 303 x(14)#14 + 567 x(15)#15
     + 377 x(16)#16 + 642 x(17)#17 + 99 x(18)#18 + 110 x(19)#19 + 761 x(20)#20
     + 521 x(21)#21 + 374 x(22)#22 + 12 x(23)#23 + 927 x(24)#24 + 939 x(25)#25
     + 208 x(26)#26 + 902 x(27)#27 + 732 x(28)#28 + 213 x(29)#29 + 680 x(30)#30
     + 437 x(31)#31 + 387 x(32)#32 + 616 x(33)#33 + 8 x(34)#34 + 155 x(35)#35
     + 325 x(36)#36 + 34 x(37)#37 + 466 x(38)#38 + 134 x(39)#39 + 494 x(40)#40
     + 206 x(41)#41 + 454 x(42)#42 + 55 x(43)#43 + 181 x(44)#44 + 875 x(45)#45
     + 905 x(46)#46 + 650 x(47)#47 + 919 x(48)#48 + 261 x(49)#49 + 797 x(50)#50
     + 403 x(51)#51 + 776 x(52)#52 + 53 x(53)#53 + 267 x(54)#54 + 100 x(55)#55
     + 622 x(56)#56 + 113 x(57)#57 + 161 x(58)#58 + 761 x(59)#59 + 110 x(60)#60
     + 364 x(61)#61 + 755 x(62)#62 + 176 x(63)#63 + 267 x(64)#64 + 388 x(65)#65
     + 715 x(66)#66 + 753 x(67)#67 + 690 x(68)#68 + 662 x(69)#69 + 632 x(70)#70
     + 570 x(71)#71 + 991 x(72)#72 + 105 x(73)#73 + 831 x(74)#74 + 951 x(75)#75
     + 101 x(76)#76 + 644 x(77)#77 + 788 x(78)#78 + 91 x(79)#79 + 87 x(80)#80
     + 537 x(81)#81 + 223 x(82)#82 + 817 x(83)#83 + 865 x(84)#84 + 854 x(85)#85
     + 375 x(86)#86 + 833 x(87)#87 + 358 x(88)#88 + 960 x(89)#89 + 752 x(90)#90
     + 331 x(91)#91 + 752 x(92)#92 + 966 x(93)#93 + 787 x(94)#94 + 165 x(95)#95
     + 601 x(96)#96 + 638 x(97)#97 + 833 x(98)#98 + 741 x(99)#99 <= 25309
Bounds
 0 <= x(0)#0 <= 1
 0 <= x(1)#1 <= 1
 0 <= x(2)#2 <= 1
 0 <= x(3)#3 <= 1
 0 <= x(4)#4 <= 1
 0 <= x(5)#5 <= 1
 0 <= x(6)#6 <= 1
 0 <= x(7)#7 <= 1
 0 <= x(8)#8 <= 1
 0 <= x(9)#9 <= 1
 0 <= x(10)#10 <= 1
 0 <= x(11)#11 <= 1
 0 <= x(12)#12 <= 1
 0 <= x(13)#13 <= 1
 0 <= x(14)#14 <= 1
 0 <= x(15)#15 <= 1
 0 <= x(16)#16 <= 1
 0 <= x(17)#17 <= 1
 0 <= x(18)#18 <= 1
 0 <= x(19)#19 <= 1
 0 <= x(20)#20 <= 1
 0 <= x(21)#21 <= 1
 0 <= x(22)#22 <= 1
 0 <= x(23)#23 <= 1
 0 <= x(24)#24 <= 1
 0 <= x(25)#25 <= 1
 0 <= x(26)#26 <= 1
 0 <= x(27)#27 <= 1
 0 <= x(28)#28 <= 1
 0 <= x(29)#29 <= 1
 0 <= x(30)#30 <= 1
 0 <= x(31)#31 <= 1
 0 <= x(32)#32 <= 1
 0 <= x(33)#33 <= 1
 0 <= x(34)#34 <= 1
 0 <= x(35)#35 <= 1
 0 <= x(36)#36 <= 1
 0 <= x(37)#37 <= 1
 0 <= x(38)#38 <= 1
 0 <= x(39)#39 <= 1
 0 <= x(40)#40 <= 1
 0 <= x(41)#41 <= 1
 0 <= x(42)#42 <= 1
 0 <= x(43)#43 <= 1
 0 <= x(44)#44 <= 1
 0 <= x(45)#45 <= 1
 0 <= x(46)#46 <= 1
 0 <= x(47)#47 <= 1
 0 <= x(48)#48 <= 1
 0 <= x(49)#49 <= 1
 0 <= x(50)#50 <= 1
 0 <= x(51)#51 <= 1
 0 <= x(52)#52 <= 1
 0 <= x(53)#53 <= 1
 0 <= x(54)#54 <= 1
 0 <= x(55)#55 <= 1
 0 <= x(56)#56 <= 1
 0 <= x(57)#57 <= 1
 0 <= x(58)#58 <= 1
 0 <= x(59)#59 <= 1
 0 <= x(60)#60 <= 1
 0 <= x(61)#61 <= 1
 0 <= x(62)#62 <= 1
 0 <= x(63)#63 <= 1
 0 <= x(64)#64 <= 1
 0 <= x(65)#65 <= 1
 0 <= x(66)#66 <= 1
 0 <= x(67)#67 <= 1
 0 <= x(68)#68 <= 1
 0 <= x(69)#69 <= 1
 0 <= x(70)#70 <= 1
 0 <= x(71)#71 <= 1
 0 <= x(72)#72 <= 1
 0 <= x(73)#73 <= 1
 0 <= x(74)#74 <= 1
 0 <= x(75)#75 <= 1
 0 <= x(76)#76 <= 1
 0 <= x(77)#77 <= 1
 0 <= x(78)#78 <= 1
 0 <= x(79)#79 <= 1
 0 <= x(80)#80 <= 1
 0 <= x(81)#81 <= 1
 0 <= x(82)#82 <= 1
 0 <= x(83)#83 <= 1
 0 <= x(84)#84 <= 1
 0 <= x(85)#85 <= 1
 0 <= x(86)#86 <= 1
 0 <= x(87)#87 <= 1
 0 <= x(88)#88 <= 1
 0 <= x(89)#89 <= 1
 0 <= x(90)#90 <= 1
 0 <= x(91)#91 <= 1
 0 <= x(92)#92 <= 1
 0 <= x(93)#93 <= 1
 0 <= x(94)#94 <= 1
 0 <= x(95)#95 <= 1
 0 <= x(96)#96 <= 1
 0 <= x(97)#97 <= 1
 0 <= x(98)#98 <= 1
 0 <= x(99)#99 <= 1
Generals
 x(0)#0  x(1)#1  x(2)#2  x(3)#3  x(4)#4  x(5)#5  x(6)#6  x(7)#7  x(8)#8 
 x(9)#9  x(10)#10  x(11)#11  x(12)#12  x(13)#13  x(14)#14  x(15)#15  x(16)#16 
 x(17)#17  x(18)#18  x(19)#19  x(20)#20  x(21)#21  x(22)#22  x(23)#23 
 x(24)#24  x(25)#25  x(26)#26  x(27)#27  x(28)#28  x(29)#29  x(30)#30 
 x(31)#31  x(32)#32  x(33)#33  x(34)#34  x(35)#35  x(36)#36  x(37)#37 
 x(38)#38  x(39)#39  x(40)#40  x(41)#41  x(42)#42  x(43)#43  x(44)#44 
 x(45)#45  x(46)#46  x(47)#47  x(48)#48  x(49)#49  x(50)#50  x(51)#51 
 x(52)#52  x(53)#53  x(54)#54  x(55)#55  x(56)#56  x(57)#57  x(58)#58 
 x(59)#59  x(60)#60  x(61)#61  x(62)#62  x(63)#63  x(64)#64  x(65)#65 
 x(66)#66  x(67)#67  x(68)#68  x(69)#69  x(70)#70  x(71)#71  x(72)#72 
 x(73)#73  x(74)#74  x(75)#75  x(76)#76  x(77)#77  x(78)#78  x(79)#79 
 x(80)#80  x(81)#81  x(82)#82  x(83)#83  x(84)#84  x(85)#85  x(86)#86 
 x(87)#87  x(88)#88  x(89)#89  x(90)#90  x(91)#91  x(92)#92  x(93)#93 
 x(94)#94  x(95)#95  x(96)#96  x(97)#97  x(98)#98  x(99)#99 
End
